<instance format="XCSP3" type="CSP">
  <variables>
    <var id="x0"> 0 1 7 13 14 </var>
    <var id="x1"> 5 12 </var>
    <var id="x2"> 1 12 14 </var>
    <var id="x3"> 0 1 7 12 14 </var>
    <var id="x4"> 1 5 7 12 13 </var>
    <var id="x5"> 0 1 13 14 </var>
    <var id="x6"> 7 12 14 </var>
    <var id="x7"> 7 8 14 </var>
    <var id="x8"> 3 7 8 12 14 </var>
    <var id="x9"> 4 10 12 </var>
    <var id="x10"> 4 7 12 14 </var>
    <var id="x11"> 4 8 14 </var>
    <var id="x12"> 7 8 10 12 14 </var>
    <var id="x13"> 7 10 12 </var>
    <var id="x14"> 1 8 13 14 </var>
    <var id="x15"> 8 12 14 </var>
    <var id="x16"> 8 12..14 </var>
    <var id="x17"> 10..12 </var>
    <var id="x18"> 1 10 12 13 </var>
    <var id="x19"> 1 8 13 14 </var>
    <var id="x20"> 1 10 12..14 </var>
    <var id="x21"> 1 7 8 14 </var>
    <var id="x22"> 3 8 12 14 </var>
    <var id="x23"> 3 4 8 12 </var>
    <var id="x24"> 1 7 8 12 14 </var>
    <var id="x25"> 3 7 8 12 </var>
    <var id="x26"> 1 3 4 8 14 </var>
    <var id="x27"> 7 12 </var>
    <var id="x28"> 2 4 8 </var>
    <var id="x29"> 2 4 8 11 14 </var>
    <var id="x30"> 0 4 11 </var>
    <var id="x31"> 2 8 13 </var>
    <var id="x32"> 4 13 14 </var>
    <var id="x33"> 4 8 14 </var>
    <var id="x34"> 2 13 </var>
    <var id="x35"> 0 2 8 </var>
    <var id="x36"> 2 8 12 </var>
    <var id="x37"> 8 9 12 </var>
    <var id="x38"> 0 8 10 12 </var>
    <var id="x39"> 0 6 10 12 </var>
    <var id="x40"> 2 6 8 12 </var>
    <var id="x41"> 9 12 </var>
    <var id="x42"> 2 12 </var>
    <var id="x43"> 2 4 10 12 </var>
    <var id="x44"> 2 4 11 12 </var>
    <var id="x45"> 7 10 12 </var>
    <var id="x46"> 4 7 9 11 12 </var>
    <var id="x47"> 4 9 </var>
    <var id="x48"> 2 7 10..12 </var>
    <var id="x49"> 1 7 8 14 </var>
    <var id="x50"> 4 </var>
    <var id="x51"> 1 4 7 13 14 </var>
    <var id="x52"> 1 7 13 </var>
    <var id="x53"> 1 4 8 14 </var>
    <var id="x54"> 2 7 8 14 </var>
    <var id="x55"> 2 7 13 </var>
    <var id="x56"> 5 6 8 12 </var>
    <var id="x57"> 1 8 11 12 </var>
    <var id="x58"> 5 6 11 12 </var>
    <var id="x59"> 6 8 12 13 </var>
    <var id="x60"> 1 12 13 </var>
    <var id="x61"> 1 5 8 </var>
    <var id="x62"> 8 11 12 </var>
    <var id="x63"> 1 2 14 </var>
    <var id="x64"> 2 4 10 12 </var>
    <var id="x65"> 9 12 14 </var>
    <var id="x66"> 1 4 9 12 14 </var>
    <var id="x67"> 1 9 10 12 </var>
    <var id="x68"> 1 4 9 14 </var>
    <var id="x69"> 2 10 12 14 </var>
    <var id="x70"> 1 2 12 14 </var>
    <var id="x71"> 12..14 </var>
    <var id="x72"> 1 5 12 13 </var>
    <var id="x73"> 1 12..14 </var>
    <var id="x74"> 1 5 14 </var>
    <var id="x75"> 2 12 14 </var>
    <var id="x76"> 2 6 12 13 </var>
    <var id="x77"> 3 5 12 </var>
    <var id="x78"> 3..5 12 </var>
    <var id="x79"> 7 12 </var>
    <var id="x80"> 3 7 12 13 </var>
    <var id="x81"> 5 7 9 12 13 </var>
    <var id="x82"> 4 13 </var>
    <var id="x83"> 4 9 12 13 </var>
    <var id="x84"> 1 2 8 13 </var>
    <var id="x85"> 2 3 8 12 </var>
    <var id="x86"> 2 3 6 8 12 13 </var>
    <var id="x87"> 1 12 13 </var>
    <var id="x88"> 1 6 8 13 </var>
    <var id="x89"> 1 12 13 </var>
    <var id="x90"> 2 6 12 13 </var>
    <var id="x91"> 3 6 8 12 14 </var>
    <var id="x92"> 3 7..9 12 14 </var>
    <var id="x93"> 6 10 12 </var>
    <var id="x94"> 3 6..8 12 </var>
    <var id="x95"> 7 9 12 14 </var>
    <var id="x96"> 7 9 10 12 </var>
    <var id="x97"> 6 8 14 </var>
    <var id="x98"> 6 7 9 10 12 </var>
    <var id="x99"> 5 8 14 </var>
    <var id="x100"> 8 14 </var>
    <var id="x101"> 7..9 14 </var>
    <var id="x102"> 0 7 8 10 14 </var>
    <var id="x103"> 7 9 14 </var>
    <var id="x104"> 0 8 14 </var>
    <var id="x105"> 9 10 14 </var>
  </variables>
  <constraints>
    <group>
      <allDifferent> %... </allDifferent>
      <args> x0 x1 x2 x3 x4 x5 x6 </args>
      <args> x7 x8 x9 x10 x11 x12 x13 </args>
      <args> x14 x15 x16 x17 x18 x19 x20 </args>
      <args> x21 x22 x23 x24 x25 x26 x27 </args>
      <args> x28 x29 x30 x31 x32 x33 x34 </args>
      <args> x35 x36 x37 x38 x39 x40 x41 </args>
      <args> x42 x43 x44 x45 x46 x47 x48 </args>
      <args> x49 x50 x51 x52 x53 x54 x55 </args>
      <args> x56 x57 x58 x59 x60 x61 x62 </args>
      <args> x63 x64 x65 x66 x67 x68 x69 </args>
      <args> x70 x71 x72 x73 x74 x75 x76 </args>
      <args> x77 x78 x79 x80 x81 x82 x83 </args>
      <args> x84 x85 x86 x87 x88 x89 x90 </args>
      <args> x91 x92 x93 x94 x95 x96 x97 x98 </args>
      <args> x99 x100 x101 x102 x103 x104 x105 </args>
      <args> x0 x7 x14 x21 x35 x63 x84 </args>
      <args> x15 x22 x42 x56 x77 x91 x99 </args>
      <args> x1 x23 x28 x43 x64 x78 x85 </args>
      <args> x2 x29 x36 x44 x57 x70 x100 </args>
      <args> x8 x16 x37 x65 x71 x92 x101 </args>
      <args> x3 x24 x38 x45 x49 x79 x102 </args>
      <args> x9 x17 x30 x39 x50 x58 x93 </args>
      <args> x25 x31 x40 x59 x80 x86 x94 </args>
      <args> x10 x41 x46 x51 x66 x87 x95 x103 </args>
      <args> x4 x18 x52 x67 x72 x81 x96 </args>
      <args> x5 x11 x19 x82 x88 x97 x104 </args>
      <args> x20 x32 x60 x73 x83 x89 x105 </args>
      <args> x26 x33 x47 x53 x61 x68 x74 </args>
      <args> x6 x12 x48 x54 x62 x69 x75 </args>
      <args> x13 x27 x34 x55 x76 x90 x98 </args>
    </group>
  </constraints>
</instance>

